;test regex ^\(?(?:(?:0(?:0|11)\)?[\s-]?\(?|\+)44\)?[\s-]?\(?(?:0\)?[\s-]?\(?)?|0)(?:\d{2}\)?[\s-]?\d{4}[\s-]?\d{4}|\d{3}\)?[\s-]?\d{3}[\s-]?\d{3,4}|\d{4}\)?[\s-]?(?:\d{5}|\d{3}[\s-]?\d{3})|\d{5}\)?[\s-]?\d{4,5}|8(?:00[\s-]?11[\s-]?11|45[\s-]?46[\s-]?4\d))(?:(?:[\s-]?(?:x|ext\.?\s?|\#)\d+)?)$^|^2(?:0[01378]|3[0189]|4[017]|8[0-46-9]|9[012])\d{7}|1(?:(?:1(?:3[0-48]|[46][0-4]|5[012789]|7[0-49]|8[01349])|21[0-7]|31[0-8]|[459]1\d|61[0-46-9]))\d{6}|1(?:2(?:0[024-9]|2[3-9]|3[3-79]|4[1-689]|[58][02-9]|6[0-4789]|7[013-9]|9\d)|3(?:0\d|[25][02-9]|3[02-579]|[468][0-46-9]|7[1235679]|9[24578])|4(?:0[03-9]|2[02-5789]|[37]\d|4[02-69]|5[0-8]|[69][0-79]|8[0-5789])|5(?:0[1235-9]|2[024-9]|3[0145689]|4[02-9]|5[03-9]|6\d|7[0-35-9]|8[0-468]|9[0-5789])|6(?:0[034689]|2[0-689]|[38][013-9]|4[1-467]|5[0-69]|6[13-9]|7[0-8]|9[0124578])|7(?:0[0246-9]|2\d|3[023678]|4[03-9]|5[0-46-9]|6[013-9]|7[0-35-9]|8[024-9]|9[02-9])|8(?:0[35-9]|2[1-5789]|3[02-578]|4[0-578]|5[124-9]|6[2-69]|7\d|8[02-9]|9[02569])|9(?:0[02-589]|2[02-689]|3[1-5789]|4[2-9]|5[0-579]|6[234789]|7[0124578]|8\d|9[2-57]))\d{6}|1(?:2(?:0(?:46[1-4]|87[2-9])|545[1-79]|76(?:2\d|3[1-8]|6[1-6])|9(?:7(?:2[0-4]|3[2-5])|8(?:2[2-8]|7[0-4789]|8[345])))|3(?:638[2-5]|647[23]|8(?:47[04-9]|64[015789]))|4(?:044[1-7]|20(?:2[23]|8\d)|6(?:0(?:30|5[2-57]|6[1-8]|7[2-8])|140)|8(?:052|87[123]))|5(?:24(?:3[2-79]|6\d)|276\d|6(?:26[06-9]|686))|6(?:06(?:4\d|7[4-79])|295[567]|35[34]\d|47(?:24|61)|59(?:5[08]|6[67]|74)|955[0-4])|7(?:26(?:6[13-9]|7[0-7])|442\d|50(?:2[0-3]|[3-68]2|76))|8(?:27[56]\d|37(?:5[2-5]|8[239])|84(?:3[2-58]))|9(?:0(?:0(?:6[1-8]|85)|52\d)|3583|4(?:66[1-8]|9(?:2[01]|81))|63(?:23|3[1-4])|9561))\d{3}|176888[234678]\d{2}|16977[23]\d{3}|7(?:[1-4]\d\d|5(?:0[0-8]|[13-9]\d|2[0-35-9])|624|7(?:0[1-9]|[1-7]\d|8[02-9]|9[0-689])|8(?:[014-9]\d|[23][0-8])|9(?:[04-9]\d|1[02-9]|2[0-35-9]|3[0-689]))\d{6}|76(?:0[012]|2[356]|4[0134]|5[49]|6[0-369]|77|81|9[39])\d{6}|80(?:0\d{6,7}|8\d{7})|500\d{6}|(?:87[123]|9(?:[01]\d|8[0-3]))\d{7}|8(?:4[2-5]|70)\d{7}|70\d{8}|56\d{8}|(?:3[0347]|55)\d{8}|8(?:001111|45464\d)$|(?:\((\+?\d+)?\)|(\+\d{0,3}))? ?\d{2,3}([-\.]?\d{2,3} ?){3,4}
(declare-const X String)
(assert (str.in_re X (re.union (re.union (re.union (re.union (re.union (re.union (re.union (re.union (re.union (re.union (re.union (re.union (re.union (re.union (re.union (re.union (re.union (re.++ (re.++ (re.++ (str.to_re "") (re.++ (re.opt (str.to_re "(")) (re.++ (re.union (re.++ (re.union (re.++ (str.to_re "0") (re.++ (re.union (str.to_re "0") (str.to_re "11")) (re.++ (re.opt (str.to_re ")")) (re.++ (re.opt (re.union (re.union (str.to_re "\u{20}") (re.union (str.to_re "\u{0b}") (re.union (str.to_re "\u{0a}") (re.union (str.to_re "\u{0d}") (re.union (str.to_re "\u{09}") (str.to_re "\u{0c}")))))) (str.to_re "-"))) (re.opt (str.to_re "(")))))) (str.to_re "+")) (re.++ (str.to_re "44") (re.++ (re.opt (str.to_re ")")) (re.++ (re.opt (re.union (re.union (str.to_re "\u{20}") (re.union (str.to_re "\u{0b}") (re.union (str.to_re "\u{0a}") (re.union (str.to_re "\u{0d}") (re.union (str.to_re "\u{09}") (str.to_re "\u{0c}")))))) (str.to_re "-"))) (re.++ (re.opt (str.to_re "(")) (re.opt (re.++ (str.to_re "0") (re.++ (re.opt (str.to_re ")")) (re.++ (re.opt (re.union (re.union (str.to_re "\u{20}") (re.union (str.to_re "\u{0b}") (re.union (str.to_re "\u{0a}") (re.union (str.to_re "\u{0d}") (re.union (str.to_re "\u{09}") (str.to_re "\u{0c}")))))) (str.to_re "-"))) (re.opt (str.to_re "("))))))))))) (str.to_re "0")) (re.++ (re.union (re.union (re.union (re.union (re.++ ((_ re.loop 2 2) (re.range "0" "9")) (re.++ (re.opt (str.to_re ")")) (re.++ (re.opt (re.union (re.union (str.to_re "\u{20}") (re.union (str.to_re "\u{0b}") (re.union (str.to_re "\u{0a}") (re.union (str.to_re "\u{0d}") (re.union (str.to_re "\u{09}") (str.to_re "\u{0c}")))))) (str.to_re "-"))) (re.++ ((_ re.loop 4 4) (re.range "0" "9")) (re.++ (re.opt (re.union (re.union (str.to_re "\u{20}") (re.union (str.to_re "\u{0b}") (re.union (str.to_re "\u{0a}") (re.union (str.to_re "\u{0d}") (re.union (str.to_re "\u{09}") (str.to_re "\u{0c}")))))) (str.to_re "-"))) ((_ re.loop 4 4) (re.range "0" "9"))))))) (re.++ ((_ re.loop 3 3) (re.range "0" "9")) (re.++ (re.opt (str.to_re ")")) (re.++ (re.opt (re.union (re.union (str.to_re "\u{20}") (re.union (str.to_re "\u{0b}") (re.union (str.to_re "\u{0a}") (re.union (str.to_re "\u{0d}") (re.union (str.to_re "\u{09}") (str.to_re "\u{0c}")))))) (str.to_re "-"))) (re.++ ((_ re.loop 3 3) (re.range "0" "9")) (re.++ (re.opt (re.union (re.union (str.to_re "\u{20}") (re.union (str.to_re "\u{0b}") (re.union (str.to_re "\u{0a}") (re.union (str.to_re "\u{0d}") (re.union (str.to_re "\u{09}") (str.to_re "\u{0c}")))))) (str.to_re "-"))) ((_ re.loop 3 4) (re.range "0" "9")))))))) (re.++ ((_ re.loop 4 4) (re.range "0" "9")) (re.++ (re.opt (str.to_re ")")) (re.++ (re.opt (re.union (re.union (str.to_re "\u{20}") (re.union (str.to_re "\u{0b}") (re.union (str.to_re "\u{0a}") (re.union (str.to_re "\u{0d}") (re.union (str.to_re "\u{09}") (str.to_re "\u{0c}")))))) (str.to_re "-"))) (re.union ((_ re.loop 5 5) (re.range "0" "9")) (re.++ ((_ re.loop 3 3) (re.range "0" "9")) (re.++ (re.opt (re.union (re.union (str.to_re "\u{20}") (re.union (str.to_re "\u{0b}") (re.union (str.to_re "\u{0a}") (re.union (str.to_re "\u{0d}") (re.union (str.to_re "\u{09}") (str.to_re "\u{0c}")))))) (str.to_re "-"))) ((_ re.loop 3 3) (re.range "0" "9"))))))))) (re.++ ((_ re.loop 5 5) (re.range "0" "9")) (re.++ (re.opt (str.to_re ")")) (re.++ (re.opt (re.union (re.union (str.to_re "\u{20}") (re.union (str.to_re "\u{0b}") (re.union (str.to_re "\u{0a}") (re.union (str.to_re "\u{0d}") (re.union (str.to_re "\u{09}") (str.to_re "\u{0c}")))))) (str.to_re "-"))) ((_ re.loop 4 5) (re.range "0" "9")))))) (re.++ (str.to_re "8") (re.union (re.++ (str.to_re "00") (re.++ (re.opt (re.union (re.union (str.to_re "\u{20}") (re.union (str.to_re "\u{0b}") (re.union (str.to_re "\u{0a}") (re.union (str.to_re "\u{0d}") (re.union (str.to_re "\u{09}") (str.to_re "\u{0c}")))))) (str.to_re "-"))) (re.++ (str.to_re "11") (re.++ (re.opt (re.union (re.union (str.to_re "\u{20}") (re.union (str.to_re "\u{0b}") (re.union (str.to_re "\u{0a}") (re.union (str.to_re "\u{0d}") (re.union (str.to_re "\u{09}") (str.to_re "\u{0c}")))))) (str.to_re "-"))) (str.to_re "11"))))) (re.++ (str.to_re "45") (re.++ (re.opt (re.union (re.union (str.to_re "\u{20}") (re.union (str.to_re "\u{0b}") (re.union (str.to_re "\u{0a}") (re.union (str.to_re "\u{0d}") (re.union (str.to_re "\u{09}") (str.to_re "\u{0c}")))))) (str.to_re "-"))) (re.++ (str.to_re "46") (re.++ (re.opt (re.union (re.union (str.to_re "\u{20}") (re.union (str.to_re "\u{0b}") (re.union (str.to_re "\u{0a}") (re.union (str.to_re "\u{0d}") (re.union (str.to_re "\u{09}") (str.to_re "\u{0c}")))))) (str.to_re "-"))) (re.++ (str.to_re "4") (re.range "0" "9"))))))))) (re.opt (re.++ (re.opt (re.union (re.union (str.to_re "\u{20}") (re.union (str.to_re "\u{0b}") (re.union (str.to_re "\u{0a}") (re.union (str.to_re "\u{0d}") (re.union (str.to_re "\u{09}") (str.to_re "\u{0c}")))))) (str.to_re "-"))) (re.++ (re.union (re.union (str.to_re "x") (re.++ (str.to_re "e") (re.++ (str.to_re "x") (re.++ (str.to_re "t") (re.++ (re.opt (str.to_re ".")) (re.opt (re.union (str.to_re " ") (re.union (str.to_re "\u{0b}") (re.union (str.to_re "\u{0a}") (re.union (str.to_re "\u{0d}") (re.union (str.to_re "\u{09}") (str.to_re "\u{0c}")))))))))))) (str.to_re "#")) (re.+ (re.range "0" "9"))))))))) (str.to_re "")) (str.to_re "")) (re.++ (str.to_re "") (re.++ (str.to_re "2") (re.++ (re.union (re.union (re.union (re.union (re.++ (str.to_re "0") (str.to_re "01378")) (re.++ (str.to_re "3") (str.to_re "0189"))) (re.++ (str.to_re "4") (str.to_re "017"))) (re.++ (str.to_re "8") (re.union (re.range "0" "46") (re.union (str.to_re "-") (str.to_re "9"))))) (re.++ (str.to_re "9") (str.to_re "012"))) ((_ re.loop 7 7) (re.range "0" "9")))))) (re.++ (str.to_re "1") (re.++ (re.union (re.union (re.union (re.union (re.++ (str.to_re "1") (re.union (re.union (re.union (re.union (re.++ (str.to_re "3") (re.range "0" "48")) (re.++ (str.to_re "46") (re.range "0" "4"))) (re.++ (str.to_re "5") (str.to_re "012789"))) (re.++ (str.to_re "7") (re.range "0" "49"))) (re.++ (str.to_re "8") (str.to_re "01349")))) (re.++ (str.to_re "21") (re.range "0" "7"))) (re.++ (str.to_re "31") (re.range "0" "8"))) (re.++ (str.to_re "459") (re.++ (str.to_re "1") (re.range "0" "9")))) (re.++ (str.to_re "61") (re.union (re.range "0" "46") (re.union (str.to_re "-") (str.to_re "9"))))) ((_ re.loop 6 6) (re.range "0" "9"))))) (re.++ (str.to_re "1") (re.++ (re.union (re.union (re.union (re.union (re.union (re.union (re.union (re.++ (str.to_re "2") (re.union (re.union (re.union (re.union (re.union (re.union (re.union (re.++ (str.to_re "0") (re.range "024" "9")) (re.++ (str.to_re "2") (re.range "3" "9"))) (re.++ (str.to_re "3") (re.range "3" "79"))) (re.++ (str.to_re "4") (re.range "1" "689"))) (re.++ (str.to_re "58") (re.range "02" "9"))) (re.++ (str.to_re "6") (re.range "0" "4789"))) (re.++ (str.to_re "7") (re.range "013" "9"))) (re.++ (str.to_re "9") (re.range "0" "9")))) (re.++ (str.to_re "3") (re.union (re.union (re.union (re.union (re.union (re.++ (str.to_re "0") (re.range "0" "9")) (re.++ (str.to_re "25") (re.range "02" "9"))) (re.++ (str.to_re "3") (re.range "02" "579"))) (re.++ (str.to_re "468") (re.union (re.range "0" "46") (re.union (str.to_re "-") (str.to_re "9"))))) (re.++ (str.to_re "7") (str.to_re "1235679"))) (re.++ (str.to_re "9") (str.to_re "24578"))))) (re.++ (str.to_re "4") (re.union (re.union (re.union (re.union (re.union (re.union (re.++ (str.to_re "0") (re.range "03" "9")) (re.++ (str.to_re "2") (re.range "02" "5789"))) (re.++ (str.to_re "37") (re.range "0" "9"))) (re.++ (str.to_re "4") (re.range "02" "69"))) (re.++ (str.to_re "5") (re.range "0" "8"))) (re.++ (str.to_re "69") (re.range "0" "79"))) (re.++ (str.to_re "8") (re.range "0" "5789"))))) (re.++ (str.to_re "5") (re.union (re.union (re.union (re.union (re.union (re.union (re.union (re.union (re.++ (str.to_re "0") (re.range "1235" "9")) (re.++ (str.to_re "2") (re.range "024" "9"))) (re.++ (str.to_re "3") (str.to_re "0145689"))) (re.++ (str.to_re "4") (re.range "02" "9"))) (re.++ (str.to_re "5") (re.range "03" "9"))) (re.++ (str.to_re "6") (re.range "0" "9"))) (re.++ (str.to_re "7") (re.union (re.range "0" "35") (re.union (str.to_re "-") (str.to_re "9"))))) (re.++ (str.to_re "8") (re.range "0" "468"))) (re.++ (str.to_re "9") (re.range "0" "5789"))))) (re.++ (str.to_re "6") (re.union (re.union (re.union (re.union (re.union (re.union (re.union (re.++ (str.to_re "0") (str.to_re "034689")) (re.++ (str.to_re "2") (re.range "0" "689"))) (re.++ (str.to_re "38") (re.range "013" "9"))) (re.++ (str.to_re "4") (re.range "1" "467"))) (re.++ (str.to_re "5") (re.range "0" "69"))) (re.++ (str.to_re "6") (re.range "13" "9"))) (re.++ (str.to_re "7") (re.range "0" "8"))) (re.++ (str.to_re "9") (str.to_re "0124578"))))) (re.++ (str.to_re "7") (re.union (re.union (re.union (re.union (re.union (re.union (re.union (re.union (re.++ (str.to_re "0") (re.range "0246" "9")) (re.++ (str.to_re "2") (re.range "0" "9"))) (re.++ (str.to_re "3") (str.to_re "023678"))) (re.++ (str.to_re "4") (re.range "03" "9"))) (re.++ (str.to_re "5") (re.union (re.range "0" "46") (re.union (str.to_re "-") (str.to_re "9"))))) (re.++ (str.to_re "6") (re.range "013" "9"))) (re.++ (str.to_re "7") (re.union (re.range "0" "35") (re.union (str.to_re "-") (str.to_re "9"))))) (re.++ (str.to_re "8") (re.range "024" "9"))) (re.++ (str.to_re "9") (re.range "02" "9"))))) (re.++ (str.to_re "8") (re.union (re.union (re.union (re.union (re.union (re.union (re.union (re.union (re.++ (str.to_re "0") (re.range "35" "9")) (re.++ (str.to_re "2") (re.range "1" "5789"))) (re.++ (str.to_re "3") (re.range "02" "578"))) (re.++ (str.to_re "4") (re.range "0" "578"))) (re.++ (str.to_re "5") (re.range "124" "9"))) (re.++ (str.to_re "6") (re.range "2" "69"))) (re.++ (str.to_re "7") (re.range "0" "9"))) (re.++ (str.to_re "8") (re.range "02" "9"))) (re.++ (str.to_re "9") (str.to_re "02569"))))) (re.++ (str.to_re "9") (re.union (re.union (re.union (re.union (re.union (re.union (re.union (re.union (re.++ (str.to_re "0") (re.range "02" "589")) (re.++ (str.to_re "2") (re.range "02" "689"))) (re.++ (str.to_re "3") (re.range "1" "5789"))) (re.++ (str.to_re "4") (re.range "2" "9"))) (re.++ (str.to_re "5") (re.range "0" "579"))) (re.++ (str.to_re "6") (str.to_re "234789"))) (re.++ (str.to_re "7") (str.to_re "0124578"))) (re.++ (str.to_re "8") (re.range "0" "9"))) (re.++ (str.to_re "9") (re.range "2" "57"))))) ((_ re.loop 6 6) (re.range "0" "9"))))) (re.++ (str.to_re "1") (re.++ (re.union (re.union (re.union (re.union (re.union (re.union (re.union (re.++ (str.to_re "2") (re.union (re.union (re.union (re.++ (str.to_re "0") (re.union (re.++ (str.to_re "46") (re.range "1" "4")) (re.++ (str.to_re "87") (re.range "2" "9")))) (re.++ (str.to_re "545") (re.range "1" "79"))) (re.++ (str.to_re "76") (re.union (re.union (re.++ (str.to_re "2") (re.range "0" "9")) (re.++ (str.to_re "3") (re.range "1" "8"))) (re.++ (str.to_re "6") (re.range "1" "6"))))) (re.++ (str.to_re "9") (re.union (re.++ (str.to_re "7") (re.union (re.++ (str.to_re "2") (re.range "0" "4")) (re.++ (str.to_re "3") (re.range "2" "5")))) (re.++ (str.to_re "8") (re.union (re.union (re.++ (str.to_re "2") (re.range "2" "8")) (re.++ (str.to_re "7") (re.range "0" "4789"))) (re.++ (str.to_re "8") (str.to_re "345")))))))) (re.++ (str.to_re "3") (re.union (re.union (re.++ (str.to_re "638") (re.range "2" "5")) (re.++ (str.to_re "647") (str.to_re "23"))) (re.++ (str.to_re "8") (re.union (re.++ (str.to_re "47") (re.range "04" "9")) (re.++ (str.to_re "64") (str.to_re "015789"))))))) (re.++ (str.to_re "4") (re.union (re.union (re.union (re.++ (str.to_re "044") (re.range "1" "7")) (re.++ (str.to_re "20") (re.union (re.++ (str.to_re "2") (str.to_re "23")) (re.++ (str.to_re "8") (re.range "0" "9"))))) (re.++ (str.to_re "6") (re.union (re.++ (str.to_re "0") (re.union (re.union (re.union (str.to_re "30") (re.++ (str.to_re "5") (re.range "2" "57"))) (re.++ (str.to_re "6") (re.range "1" "8"))) (re.++ (str.to_re "7") (re.range "2" "8")))) (str.to_re "140")))) (re.++ (str.to_re "8") (re.union (str.to_re "052") (re.++ (str.to_re "87") (str.to_re "123"))))))) (re.++ (str.to_re "5") (re.union (re.union (re.++ (str.to_re "24") (re.union (re.++ (str.to_re "3") (re.range "2" "79")) (re.++ (str.to_re "6") (re.range "0" "9")))) (re.++ (str.to_re "276") (re.range "0" "9"))) (re.++ (str.to_re "6") (re.union (re.++ (str.to_re "26") (re.range "06" "9")) (str.to_re "686")))))) (re.++ (str.to_re "6") (re.union (re.union (re.union (re.union (re.union (re.++ (str.to_re "06") (re.union (re.++ (str.to_re "4") (re.range "0" "9")) (re.++ (str.to_re "7") (re.range "4" "79")))) (re.++ (str.to_re "295") (str.to_re "567"))) (re.++ (str.to_re "35") (re.++ (str.to_re "34") (re.range "0" "9")))) (re.++ (str.to_re "47") (re.union (str.to_re "24") (str.to_re "61")))) (re.++ (str.to_re "59") (re.union (re.union (re.++ (str.to_re "5") (str.to_re "08")) (re.++ (str.to_re "6") (str.to_re "67"))) (str.to_re "74")))) (re.++ (str.to_re "955") (re.range "0" "4"))))) (re.++ (str.to_re "7") (re.union (re.union (re.++ (str.to_re "26") (re.union (re.++ (str.to_re "6") (re.range "13" "9")) (re.++ (str.to_re "7") (re.range "0" "7")))) (re.++ (str.to_re "442") (re.range "0" "9"))) (re.++ (str.to_re "50") (re.union (re.union (re.++ (str.to_re "2") (re.range "0" "3")) (re.++ (re.range "3" "68") (str.to_re "2"))) (str.to_re "76")))))) (re.++ (str.to_re "8") (re.union (re.union (re.++ (str.to_re "27") (re.++ (str.to_re "56") (re.range "0" "9"))) (re.++ (str.to_re "37") (re.union (re.++ (str.to_re "5") (re.range "2" "5")) (re.++ (str.to_re "8") (str.to_re "239"))))) (re.++ (str.to_re "84") (re.++ (str.to_re "3") (re.range "2" "58")))))) (re.++ (str.to_re "9") (re.union (re.union (re.union (re.union (re.++ (str.to_re "0") (re.union (re.++ (str.to_re "0") (re.union (re.++ (str.to_re "6") (re.range "1" "8")) (str.to_re "85"))) (re.++ (str.to_re "52") (re.range "0" "9")))) (str.to_re "3583")) (re.++ (str.to_re "4") (re.union (re.++ (str.to_re "66") (re.range "1" "8")) (re.++ (str.to_re "9") (re.union (re.++ (str.to_re "2") (str.to_re "01")) (str.to_re "81")))))) (re.++ (str.to_re "63") (re.union (str.to_re "23") (re.++ (str.to_re "3") (re.range "1" "4"))))) (str.to_re "9561")))) ((_ re.loop 3 3) (re.range "0" "9"))))) (re.++ (str.to_re "176888") (re.++ (str.to_re "234678") ((_ re.loop 2 2) (re.range "0" "9"))))) (re.++ (str.to_re "16977") (re.++ (str.to_re "23") ((_ re.loop 3 3) (re.range "0" "9"))))) (re.++ (str.to_re "7") (re.++ (re.union (re.union (re.union (re.union (re.union (re.++ (re.range "1" "4") (re.++ (re.range "0" "9") (re.range "0" "9"))) (re.++ (str.to_re "5") (re.union (re.union (re.++ (str.to_re "0") (re.range "0" "8")) (re.++ (re.range "13" "9") (re.range "0" "9"))) (re.++ (str.to_re "2") (re.union (re.range "0" "35") (re.union (str.to_re "-") (str.to_re "9"))))))) (str.to_re "624")) (re.++ (str.to_re "7") (re.union (re.union (re.union (re.++ (str.to_re "0") (re.range "1" "9")) (re.++ (re.range "1" "7") (re.range "0" "9"))) (re.++ (str.to_re "8") (re.range "02" "9"))) (re.++ (str.to_re "9") (re.range "0" "689"))))) (re.++ (str.to_re "8") (re.union (re.++ (re.range "014" "9") (re.range "0" "9")) (re.++ (str.to_re "23") (re.range "0" "8"))))) (re.++ (str.to_re "9") (re.union (re.union (re.union (re.++ (re.range "04" "9") (re.range "0" "9")) (re.++ (str.to_re "1") (re.range "02" "9"))) (re.++ (str.to_re "2") (re.union (re.range "0" "35") (re.union (str.to_re "-") (str.to_re "9"))))) (re.++ (str.to_re "3") (re.range "0" "689"))))) ((_ re.loop 6 6) (re.range "0" "9"))))) (re.++ (str.to_re "76") (re.++ (re.union (re.union (re.union (re.union (re.union (re.union (re.union (re.++ (str.to_re "0") (str.to_re "012")) (re.++ (str.to_re "2") (str.to_re "356"))) (re.++ (str.to_re "4") (str.to_re "0134"))) (re.++ (str.to_re "5") (str.to_re "49"))) (re.++ (str.to_re "6") (re.range "0" "369"))) (str.to_re "77")) (str.to_re "81")) (re.++ (str.to_re "9") (str.to_re "39"))) ((_ re.loop 6 6) (re.range "0" "9"))))) (re.++ (str.to_re "80") (re.union (re.++ (str.to_re "0") ((_ re.loop 6 7) (re.range "0" "9"))) (re.++ (str.to_re "8") ((_ re.loop 7 7) (re.range "0" "9")))))) (re.++ (str.to_re "500") ((_ re.loop 6 6) (re.range "0" "9")))) (re.++ (re.union (re.++ (str.to_re "87") (str.to_re "123")) (re.++ (str.to_re "9") (re.union (re.++ (str.to_re "01") (re.range "0" "9")) (re.++ (str.to_re "8") (re.range "0" "3"))))) ((_ re.loop 7 7) (re.range "0" "9")))) (re.++ (str.to_re "8") (re.++ (re.union (re.++ (str.to_re "4") (re.range "2" "5")) (str.to_re "70")) ((_ re.loop 7 7) (re.range "0" "9"))))) (re.++ (str.to_re "70") ((_ re.loop 8 8) (re.range "0" "9")))) (re.++ (str.to_re "56") ((_ re.loop 8 8) (re.range "0" "9")))) (re.++ (re.union (re.++ (str.to_re "3") (str.to_re "0347")) (str.to_re "55")) ((_ re.loop 8 8) (re.range "0" "9")))) (re.++ (re.++ (str.to_re "8") (re.union (str.to_re "001111") (re.++ (str.to_re "45464") (re.range "0" "9")))) (str.to_re ""))) (re.++ (re.opt (re.union (re.++ (str.to_re "(") (re.++ (re.opt (re.++ (re.opt (str.to_re "+")) (re.+ (re.range "0" "9")))) (str.to_re ")"))) (re.++ (str.to_re "+") ((_ re.loop 0 3) (re.range "0" "9"))))) (re.++ (re.opt (str.to_re " ")) (re.++ ((_ re.loop 2 3) (re.range "0" "9")) ((_ re.loop 3 4) (re.++ (re.opt (re.union (str.to_re "-") (str.to_re "."))) (re.++ ((_ re.loop 2 3) (re.range "0" "9")) (re.opt (str.to_re " ")))))))))))
; sanitize danger characters:  < > ' " &
(assert (not (str.in_re X (re.++ re.all (re.union (str.to_re "\u{3c}") (str.to_re "\u{3e}") (str.to_re "\u{27}") (str.to_re "\u{22}") (str.to_re "\u{26}")) re.all))))
(assert (< 9 (str.len X)))
(check-sat)
(get-model)